Optimal - objective value 295.00000000
      0 x0_0                   1                       4
      1 x0_1                   1                       3
      2 x0_2                   1                      13
      3 x0_3                   1                      19
     14 x0_14                  1                      62
     24 x1_4                   1                      11
     25 x1_5                   1                      11
     26 x1_6                   1                      13
     27 x1_7                   1                       1
     48 x2_8                   1                       5
     49 x2_9                   1                       1
     50 x2_10                  1                       6
     51 x2_11                  1                       7
     72 x3_12                  1                      10
     73 x3_13                  1                     -51
     75 x3_15                  1                      10
     78 x3_18                  1                      79
     96 x4_16                  1                       0
     97 x4_17                  1                    55.1
     99 x4_19                  1                    53.1
